p tw 28 42
1 3
1 8
1 15
2 14
2 16
2 28
3 7
3 19
4 6
4 16
4 20
5 9
5 18
5 25
6 9
6 13
7 22
7 24
8 11
8 16
9 28
10 17
10 20
10 23
11 12
11 20
12 18
12 19
13 27
13 28
14 17
14 22
15 19
15 26
17 23
18 26
21 24
21 26
21 27
22 25
23 25
24 27
